NAME : 10_3_3_3_(21).dat
COMMENT : Henke, Speranza, Wäscher, 2015
TYPE : MCVRP
DIMENSION : 11
EDGE_WEIGHT_TYPE : DISTANCE_MATRIX
CAPACITY : 1000
VEHICLES : 2
PRODUCT TYPES : 3
COMPARTMENTS : 3
NODE_COORD_SECTION
1 50 50
2 47.94 80.86
3 88.96 86.62
4 46.93 97.17
5 26.67 67.74
6 25.89 71.73
7 31.74 7.57
8 98.72 46.79
9 97.25 94.53
10 11.86 45.77
11 65.22 93.76
DEMAND_SECTION
1 0 0 0
2 105 10 6
3 108 7 42
4 114 39 18
5 54 74 23
6 39 89 46
7 37 4 46
8 106 75 17
9 47 77 12
10 84 30 10
11 9 16 61
DEPOT_SECTION
1
EOF